TYPE : Vertex Cover
DIMENSION: 38
EDGE_DATA_SECTION:
0 9
0 10
0 12
0 16
0 19
0 23
0 24
0 25
0 26
0 27
0 32
1 3
1 6
1 7
1 19
1 26
1 37
2 4
2 7
2 10
2 13
2 17
2 19
2 30
2 35
3 5
3 6
3 10
3 11
3 20
3 23
3 25
3 26
3 33
3 35
4 9
4 22
4 25
4 27
4 30
4 33
5 12
5 14
5 20
5 21
5 25
5 27
5 28
5 31
5 35
6 8
6 17
6 19
6 21
6 28
6 31
6 34
6 37
7 8
7 15
7 16
7 26
7 31
7 33
7 34
8 11
8 16
8 18
8 21
8 33
8 37
9 10
9 11
9 18
9 22
9 25
9 33
9 37
10 12
10 13
10 14
10 17
10 28
10 29
10 34
10 37
11 28
11 29
11 30
11 31
11 34
11 36
12 18
12 20
12 26
12 27
12 31
12 37
13 15
13 17
13 19
13 27
13 28
13 35
14 16
14 18
14 22
14 25
14 28
14 33
14 34
15 18
15 19
15 22
15 28
15 29
15 30
15 33
16 20
16 22
16 32
17 20
17 26
17 29
17 36
18 21
18 23
18 24
18 26
18 27
18 30
18 31
18 35
19 23
19 31
19 32
19 36
20 23
20 31
20 37
21 25
21 27
21 28
21 37
22 23
22 24
22 26
22 32
23 30
23 32
24 25
24 27
25 31
25 36
26 29
26 32
26 33
26 35
26 36
27 29
27 31
27 34
27 37
28 29
29 30
29 31
29 37
30 31
30 33
30 34
30 36
31 34
31 35
31 36
32 33
32 34
33 35
33 36
34 36
35 37
-1
VERTEX_DEGREE:
11.0 6.0 8.0 11.0 7.0 10.0 10.0 9.0 8.0 9.0 12.0 9.0 9.0 8.0 9.0 9.0 7.0 8.0 13.0 10.0 8.0 8.0 9.0 8.0 5.0 10.0 13.0 12.0 9.0 10.0 11.0 15.0 8.0 12.0 10.0 9.0 9.0 11.0
VERTEX_COVER:
0 1 2 4 5 6 8 10 11 15 16 17 18 19 20 22 23 25 26 27 28 30 31 33 34 35 37
EOF
